--------------------------------------------------
s SATISFIABLE
benchmarks_SAT/INST_25x25/55/inst25x25_55_0.cnf : 126 ms.
--------------------------------------------------
s SATISFIABLE
benchmarks_SAT/INST_25x25/55/inst25x25_55_10.cnf : 133 ms.
--------------------------------------------------
s SATISFIABLE
benchmarks_SAT/INST_25x25/55/inst25x25_55_11.cnf : 135 ms.
--------------------------------------------------
s SATISFIABLE
benchmarks_SAT/INST_25x25/55/inst25x25_55_12.cnf : 132 ms.
--------------------------------------------------
s SATISFIABLE
benchmarks_SAT/INST_25x25/55/inst25x25_55_13.cnf : 139 ms.
--------------------------------------------------
s SATISFIABLE
benchmarks_SAT/INST_25x25/55/inst25x25_55_14.cnf : 133 ms.
--------------------------------------------------
s SATISFIABLE
benchmarks_SAT/INST_25x25/55/inst25x25_55_15.cnf : 133 ms.
--------------------------------------------------
s SATISFIABLE
benchmarks_SAT/INST_25x25/55/inst25x25_55_16.cnf : 133 ms.
--------------------------------------------------
s SATISFIABLE
benchmarks_SAT/INST_25x25/55/inst25x25_55_17.cnf : 136 ms.
--------------------------------------------------
s SATISFIABLE
benchmarks_SAT/INST_25x25/55/inst25x25_55_18.cnf : 131 ms.
--------------------------------------------------
s SATISFIABLE
benchmarks_SAT/INST_25x25/55/inst25x25_55_19.cnf : 137 ms.
--------------------------------------------------
s SATISFIABLE
benchmarks_SAT/INST_25x25/55/inst25x25_55_1.cnf : 140 ms.
--------------------------------------------------
s SATISFIABLE
benchmarks_SAT/INST_25x25/55/inst25x25_55_20.cnf : 134 ms.
--------------------------------------------------
s SATISFIABLE
benchmarks_SAT/INST_25x25/55/inst25x25_55_21.cnf : 139 ms.
--------------------------------------------------
s SATISFIABLE
benchmarks_SAT/INST_25x25/55/inst25x25_55_22.cnf : 140 ms.
--------------------------------------------------
s SATISFIABLE
benchmarks_SAT/INST_25x25/55/inst25x25_55_23.cnf : 132 ms.
--------------------------------------------------
s SATISFIABLE
benchmarks_SAT/INST_25x25/55/inst25x25_55_24.cnf : 138 ms.
--------------------------------------------------
s SATISFIABLE
benchmarks_SAT/INST_25x25/55/inst25x25_55_25.cnf : 132 ms.
--------------------------------------------------
s SATISFIABLE
benchmarks_SAT/INST_25x25/55/inst25x25_55_26.cnf : 141 ms.
--------------------------------------------------
s SATISFIABLE
benchmarks_SAT/INST_25x25/55/inst25x25_55_27.cnf : 140 ms.
--------------------------------------------------
s SATISFIABLE
benchmarks_SAT/INST_25x25/55/inst25x25_55_28.cnf : 143 ms.
--------------------------------------------------
s SATISFIABLE
benchmarks_SAT/INST_25x25/55/inst25x25_55_29.cnf : 132 ms.
--------------------------------------------------
s SATISFIABLE
benchmarks_SAT/INST_25x25/55/inst25x25_55_2.cnf : 127 ms.
--------------------------------------------------
s SATISFIABLE
benchmarks_SAT/INST_25x25/55/inst25x25_55_30.cnf : 132 ms.
--------------------------------------------------
s SATISFIABLE
benchmarks_SAT/INST_25x25/55/inst25x25_55_31.cnf : 128 ms.
--------------------------------------------------
s SATISFIABLE
benchmarks_SAT/INST_25x25/55/inst25x25_55_32.cnf : 130 ms.
--------------------------------------------------
s SATISFIABLE
benchmarks_SAT/INST_25x25/55/inst25x25_55_33.cnf : 136 ms.
--------------------------------------------------
s SATISFIABLE
benchmarks_SAT/INST_25x25/55/inst25x25_55_34.cnf : 127 ms.
--------------------------------------------------
s SATISFIABLE
benchmarks_SAT/INST_25x25/55/inst25x25_55_35.cnf : 134 ms.
--------------------------------------------------
s SATISFIABLE
benchmarks_SAT/INST_25x25/55/inst25x25_55_36.cnf : 136 ms.
--------------------------------------------------
s SATISFIABLE
benchmarks_SAT/INST_25x25/55/inst25x25_55_37.cnf : 129 ms.
--------------------------------------------------
s SATISFIABLE
benchmarks_SAT/INST_25x25/55/inst25x25_55_38.cnf : 130 ms.
--------------------------------------------------
s SATISFIABLE
benchmarks_SAT/INST_25x25/55/inst25x25_55_39.cnf : 132 ms.
--------------------------------------------------
s SATISFIABLE
benchmarks_SAT/INST_25x25/55/inst25x25_55_3.cnf : 133 ms.
--------------------------------------------------
s SATISFIABLE
benchmarks_SAT/INST_25x25/55/inst25x25_55_40.cnf : 130 ms.
--------------------------------------------------
s SATISFIABLE
benchmarks_SAT/INST_25x25/55/inst25x25_55_41.cnf : 134 ms.
--------------------------------------------------
s SATISFIABLE
benchmarks_SAT/INST_25x25/55/inst25x25_55_42.cnf : 132 ms.
--------------------------------------------------
s SATISFIABLE
benchmarks_SAT/INST_25x25/55/inst25x25_55_43.cnf : 136 ms.
--------------------------------------------------
s SATISFIABLE
benchmarks_SAT/INST_25x25/55/inst25x25_55_44.cnf : 125 ms.
--------------------------------------------------
s SATISFIABLE
benchmarks_SAT/INST_25x25/55/inst25x25_55_45.cnf : 132 ms.
--------------------------------------------------
s SATISFIABLE
benchmarks_SAT/INST_25x25/55/inst25x25_55_46.cnf : 133 ms.
--------------------------------------------------
s SATISFIABLE
benchmarks_SAT/INST_25x25/55/inst25x25_55_47.cnf : 126 ms.
--------------------------------------------------
s SATISFIABLE
benchmarks_SAT/INST_25x25/55/inst25x25_55_48.cnf : 132 ms.
--------------------------------------------------
s SATISFIABLE
benchmarks_SAT/INST_25x25/55/inst25x25_55_49.cnf : 134 ms.
--------------------------------------------------
s SATISFIABLE
benchmarks_SAT/INST_25x25/55/inst25x25_55_4.cnf : 131 ms.
--------------------------------------------------
s SATISFIABLE
benchmarks_SAT/INST_25x25/55/inst25x25_55_50.cnf : 131 ms.
--------------------------------------------------
s SATISFIABLE
benchmarks_SAT/INST_25x25/55/inst25x25_55_51.cnf : 135 ms.
--------------------------------------------------
s SATISFIABLE
benchmarks_SAT/INST_25x25/55/inst25x25_55_52.cnf : 131 ms.
--------------------------------------------------
s SATISFIABLE
benchmarks_SAT/INST_25x25/55/inst25x25_55_53.cnf : 132 ms.
--------------------------------------------------
s SATISFIABLE
benchmarks_SAT/INST_25x25/55/inst25x25_55_54.cnf : 127 ms.
--------------------------------------------------
s SATISFIABLE
benchmarks_SAT/INST_25x25/55/inst25x25_55_55.cnf : 130 ms.
--------------------------------------------------
s SATISFIABLE
benchmarks_SAT/INST_25x25/55/inst25x25_55_56.cnf : 124 ms.
--------------------------------------------------
s SATISFIABLE
benchmarks_SAT/INST_25x25/55/inst25x25_55_57.cnf : 130 ms.
--------------------------------------------------
s SATISFIABLE
benchmarks_SAT/INST_25x25/55/inst25x25_55_58.cnf : 131 ms.
--------------------------------------------------
s SATISFIABLE
benchmarks_SAT/INST_25x25/55/inst25x25_55_59.cnf : 134 ms.
--------------------------------------------------
s SATISFIABLE
benchmarks_SAT/INST_25x25/55/inst25x25_55_5.cnf : 130 ms.
--------------------------------------------------
s SATISFIABLE
benchmarks_SAT/INST_25x25/55/inst25x25_55_60.cnf : 128 ms.
--------------------------------------------------
s SATISFIABLE
benchmarks_SAT/INST_25x25/55/inst25x25_55_61.cnf : 131 ms.
--------------------------------------------------
s SATISFIABLE
benchmarks_SAT/INST_25x25/55/inst25x25_55_62.cnf : 123 ms.
--------------------------------------------------
s SATISFIABLE
benchmarks_SAT/INST_25x25/55/inst25x25_55_63.cnf : 126 ms.
--------------------------------------------------
s SATISFIABLE
benchmarks_SAT/INST_25x25/55/inst25x25_55_64.cnf : 133 ms.
--------------------------------------------------
s SATISFIABLE
benchmarks_SAT/INST_25x25/55/inst25x25_55_65.cnf : 133 ms.
--------------------------------------------------
s SATISFIABLE
benchmarks_SAT/INST_25x25/55/inst25x25_55_66.cnf : 132 ms.
--------------------------------------------------
s SATISFIABLE
benchmarks_SAT/INST_25x25/55/inst25x25_55_67.cnf : 125 ms.
--------------------------------------------------
s SATISFIABLE
benchmarks_SAT/INST_25x25/55/inst25x25_55_68.cnf : 162 ms.
--------------------------------------------------
s SATISFIABLE
benchmarks_SAT/INST_25x25/55/inst25x25_55_69.cnf : 125 ms.
--------------------------------------------------
s SATISFIABLE
benchmarks_SAT/INST_25x25/55/inst25x25_55_6.cnf : 127 ms.
--------------------------------------------------
s SATISFIABLE
benchmarks_SAT/INST_25x25/55/inst25x25_55_70.cnf : 135 ms.
--------------------------------------------------
s SATISFIABLE
benchmarks_SAT/INST_25x25/55/inst25x25_55_71.cnf : 135 ms.
--------------------------------------------------
s SATISFIABLE
benchmarks_SAT/INST_25x25/55/inst25x25_55_72.cnf : 130 ms.
--------------------------------------------------
s SATISFIABLE
benchmarks_SAT/INST_25x25/55/inst25x25_55_73.cnf : 123 ms.
--------------------------------------------------
s SATISFIABLE
benchmarks_SAT/INST_25x25/55/inst25x25_55_74.cnf : 130 ms.
--------------------------------------------------
s SATISFIABLE
benchmarks_SAT/INST_25x25/55/inst25x25_55_75.cnf : 137 ms.
--------------------------------------------------
s SATISFIABLE
benchmarks_SAT/INST_25x25/55/inst25x25_55_76.cnf : 132 ms.
--------------------------------------------------
s SATISFIABLE
benchmarks_SAT/INST_25x25/55/inst25x25_55_77.cnf : 128 ms.
--------------------------------------------------
s SATISFIABLE
benchmarks_SAT/INST_25x25/55/inst25x25_55_78.cnf : 125 ms.
--------------------------------------------------
s SATISFIABLE
benchmarks_SAT/INST_25x25/55/inst25x25_55_79.cnf : 128 ms.
--------------------------------------------------
s SATISFIABLE
benchmarks_SAT/INST_25x25/55/inst25x25_55_7.cnf : 128 ms.
--------------------------------------------------
s SATISFIABLE
benchmarks_SAT/INST_25x25/55/inst25x25_55_80.cnf : 122 ms.
--------------------------------------------------
s SATISFIABLE
benchmarks_SAT/INST_25x25/55/inst25x25_55_81.cnf : 125 ms.
--------------------------------------------------
s SATISFIABLE
benchmarks_SAT/INST_25x25/55/inst25x25_55_82.cnf : 126 ms.
--------------------------------------------------
s SATISFIABLE
benchmarks_SAT/INST_25x25/55/inst25x25_55_83.cnf : 133 ms.
--------------------------------------------------
s SATISFIABLE
benchmarks_SAT/INST_25x25/55/inst25x25_55_84.cnf : 131 ms.
--------------------------------------------------
s SATISFIABLE
benchmarks_SAT/INST_25x25/55/inst25x25_55_85.cnf : 133 ms.
--------------------------------------------------
s SATISFIABLE
benchmarks_SAT/INST_25x25/55/inst25x25_55_86.cnf : 135 ms.
--------------------------------------------------
s SATISFIABLE
benchmarks_SAT/INST_25x25/55/inst25x25_55_87.cnf : 133 ms.
--------------------------------------------------
s SATISFIABLE
benchmarks_SAT/INST_25x25/55/inst25x25_55_88.cnf : 132 ms.
--------------------------------------------------
s SATISFIABLE
benchmarks_SAT/INST_25x25/55/inst25x25_55_89.cnf : 123 ms.
--------------------------------------------------
s SATISFIABLE
benchmarks_SAT/INST_25x25/55/inst25x25_55_8.cnf : 132 ms.
--------------------------------------------------
s SATISFIABLE
benchmarks_SAT/INST_25x25/55/inst25x25_55_90.cnf : 135 ms.
--------------------------------------------------
s SATISFIABLE
benchmarks_SAT/INST_25x25/55/inst25x25_55_91.cnf : 134 ms.
--------------------------------------------------
s SATISFIABLE
benchmarks_SAT/INST_25x25/55/inst25x25_55_92.cnf : 129 ms.
--------------------------------------------------
s SATISFIABLE
benchmarks_SAT/INST_25x25/55/inst25x25_55_93.cnf : 136 ms.
--------------------------------------------------
s SATISFIABLE
benchmarks_SAT/INST_25x25/55/inst25x25_55_94.cnf : 134 ms.
--------------------------------------------------
s SATISFIABLE
benchmarks_SAT/INST_25x25/55/inst25x25_55_95.cnf : 131 ms.
--------------------------------------------------
s SATISFIABLE
benchmarks_SAT/INST_25x25/55/inst25x25_55_96.cnf : 134 ms.
--------------------------------------------------
s SATISFIABLE
benchmarks_SAT/INST_25x25/55/inst25x25_55_97.cnf : 129 ms.
--------------------------------------------------
s SATISFIABLE
benchmarks_SAT/INST_25x25/55/inst25x25_55_98.cnf : 123 ms.
--------------------------------------------------
s SATISFIABLE
benchmarks_SAT/INST_25x25/55/inst25x25_55_99.cnf : 128 ms.
--------------------------------------------------
s SATISFIABLE
benchmarks_SAT/INST_25x25/55/inst25x25_55_9.cnf : 125 ms.
